lbl,CUST NO.,READY TIME,XCOORD.,YCOORD.,DEMAND,DUE DATE,SERVICE TIME
28,50,824,59,51,14,944,10
28,649,847,24,57,18,967,10
28,527,938,53,51,18,1058,10
28,338,969,39,34,10,1089,10
28,560,1052,6,20,27,1172,10
28,61,1077,2,17,11,1197,10
28,448,2237,13,59,13,2357,10
28,123,2798,15,4,18,2918,10
28,77,3177,2,3,14,3297,10
28,280,3219,14,53,12,3339,10
28,285,3411,9,47,5,3531,10
28,18,3588,6,62,23,3708,10
28,378,4406,3,15,20,4526,10
28,531,4610,19,61,16,4730,10
